[[96, 87, 86, 95, 94, 93, 91, 92, 83, 82, 73, 84, 85, 76, 75, 74, 67, 66, 64, 65, 58, 59, 57, 56, 55, 46, 47, 49, 50, 41, 40, 48, 39, 38, 29, 37, 28], [30, 32, 31, 21, 22, 19, 20, 13, 12, 11, 10, 2, 3, 4, 14, 5, 6, 7, 8, 9, 18, 17, 16, 15, 23, 24, 25, 26], [27, 35, 36, 44, 34, 33, 43, 42, 45, 54, 53, 52, 51, 60, 61, 62, 63, 72, 81, 71, 80, 70, 69, 68, 78, 77, 79, 88, 89, 90, 99, 98, 97]]